# 11317
param k := 6;
param n := 60;
param s := 1;
set E :=  (0,27) (1,28) (1,31) (2,9) (2,10) (2,39) (3,52) (4,5) (4,6) (4,39) (4,56) (6,15) (6,16) (6,18) (6,42) (7,16) (7,25) (7,54) (8,23) (8,55) (9,48) (11,34) (11,53) (12,30) (12,31) (13,16) (13,21) (13,35) (13,52) (14,59) (16,33) (17,19) (19,27) (19,41) (20,43) (22,53) (24,45) (26,32) (26,39) (26,59) (27,46) (27,50) (28,48) (29,38) (29,52) (32,37) (32,40) (32,45) (32,51) (33,34) (34,43) (34,57) (36,46) (37,55) (37,58) (44,50) (46,59) (47,49) (47,52);